\ENCODING=ISO-8859-1
\Problem name: IloCplex

Minimize
 obj: 45.4532737731934 x_0_1 + 14.5602197647095 x_0_2 + 45.4532737731934 x_0_3
      + 36.4005508422852 x_0_4 + 60.8276252746582 x_0_5 + 24 x_0_6
      + 73.3553009033203 x_0_7 + 64.3506011962891 x_0_8
      + 64.8151245117188 x_0_9 + 55.3263053894043 x_0_10
      + 17.8044929504395 x_0_11 + 41.1096076965332 x_0_12
      + 56.222770690918 x_0_13 + 39.0512466430664 x_0_14
      + 45.4532737731934 x_1_0 + 14.5602197647095 x_2_0
      + 45.4532737731934 x_3_0 + 36.4005508422852 x_4_0
      + 60.8276252746582 x_5_0 + 24 x_6_0 + 73.3553009033203 x_7_0
      + 64.3506011962891 x_8_0 + 64.8151245117188 x_9_0
      + 55.3263053894043 x_10_0 + 17.8044929504395 x_11_0
      + 41.1096076965332 x_12_0 + 56.222770690918 x_13_0
      + 39.0512466430664 x_14_0 + 59.0762214660645 x_1_2 + 58 x_1_3
      + 78.23681640625 x_1_4 + 99.7296371459961 x_1_5 + 35.355339050293 x_1_6
      + 116.606178283691 x_1_7 + 108.577163696289 x_1_8
      + 80.1560974121094 x_1_9 + 88.8650665283203 x_1_10
      + 28.3019428253174 x_1_11 + 79.6492309570312 x_1_12
      + 101.138519287109 x_1_13 + 10.0498752593994 x_1_14
      + 59.0762214660645 x_2_1 + 55.009090423584 x_2_3 + 31.2569999694824 x_2_4
      + 56.1426734924316 x_2_5 + 31.30495262146 x_2_6 + 64.1950149536133 x_2_7
      + 54.2309875488281 x_2_8 + 71.5891036987305 x_2_9
      + 54.7813835144043 x_2_10 + 30.8058433532715 x_2_11
      + 38.6005172729492 x_2_12 + 45.1774291992188 x_2_13
      + 51.7397346496582 x_2_14 + 58 x_3_1 + 55.009090423584 x_3_2
      + 45.3982391357422 x_3_4 + 54.6443061828613 x_3_5
      + 63.5137786865234 x_3_6 + 77.8267288208008 x_3_7
      + 74.3303451538086 x_3_8 + 22.5610275268555 x_3_9
      + 38.9486846923828 x_3_10 + 49.2442893981934 x_3_11
      + 39.8497161865234 x_3_12 + 71.5891036987305 x_3_13
      + 59.8414573669434 x_3_14 + 78.23681640625 x_4_1 + 31.2569999694824 x_4_2
      + 45.3982391357422 x_4_3 + 25 x_4_5 + 59.8414573669434 x_4_6
      + 38.4187469482422 x_4_7 + 31.4006366729736 x_4_8
      + 52.4976196289062 x_4_9 + 25.6124973297119 x_4_10
      + 53.3104133605957 x_4_11 + 9.21954441070557 x_4_12
      + 26.5706596374512 x_4_13 + 73.8241119384766 x_4_14
      + 99.7296371459961 x_5_1 + 56.1426734924316 x_5_2
      + 54.6443061828613 x_5_3 + 25 x_5_4 + 84.593147277832 x_5_6
      + 24.5153007507324 x_5_7 + 25.7099208831787 x_5_8
      + 50.8035430908203 x_5_9 + 16.763053894043 x_5_10
      + 76.9220352172852 x_5_11 + 20.2484569549561 x_5_12
      + 29.6816444396973 x_5_13 + 96.5660400390625 x_5_14
      + 35.355339050293 x_6_1 + 31.30495262146 x_6_2 + 63.5137786865234 x_6_3
      + 59.8414573669434 x_6_4 + 84.593147277832 x_6_5 + 95.2732925415039 x_6_7
      + 85.4926910400391 x_6_8 + 85 x_6_9 + 79.2275238037109 x_6_10
      + 14.8660688400269 x_6_11 + 65.0691909790039 x_6_12
      + 76.4787521362305 x_6_13 + 25.7099208831787 x_6_14
      + 116.606178283691 x_7_1 + 64.1950149536133 x_7_2
      + 77.8267288208008 x_7_3 + 38.4187469482422 x_7_4
      + 24.5153007507324 x_7_5 + 95.2732925415039 x_7_6
      + 11.0453605651855 x_7_8 + 75.3126831054688 x_7_9
      + 41.2310562133789 x_7_10 + 90.9175415039062 x_7_11
      + 39.20458984375 x_7_12 + 21.023796081543 x_7_13
      + 111.830230712891 x_7_14 + 108.577163696289 x_8_1
      + 54.2309875488281 x_8_2 + 74.3303451538086 x_8_3
      + 31.4006366729736 x_8_4 + 25.7099208831787 x_8_5
      + 85.4926910400391 x_8_6 + 11.0453605651855 x_8_7
      + 75.0599746704102 x_8_9 + 41.0121917724609 x_8_10
      + 82.0975036621094 x_8_11 + 34.5398330688477 x_8_12 + 10 x_8_13
      + 103.227905273438 x_8_14 + 80.1560974121094 x_9_1
      + 71.5891036987305 x_9_2 + 22.5610275268555 x_9_3
      + 52.4976196289062 x_9_4 + 50.8035430908203 x_9_5 + 85 x_9_6
      + 75.3126831054688 x_9_7 + 75.0599746704102 x_9_8
      + 34.2344856262207 x_9_10 + 71.1758422851562 x_9_11
      + 44.1474800109863 x_9_12 + 75.3259582519531 x_9_13
      + 82.3771820068359 x_9_14 + 88.8650665283203 x_10_1
      + 54.7813835144043 x_10_2 + 38.9486846923828 x_10_3
      + 25.6124973297119 x_10_4 + 16.763053894043 x_10_5
      + 79.2275238037109 x_10_6 + 41.2310562133789 x_10_7
      + 41.0121917724609 x_10_8 + 34.2344856262207 x_10_9
      + 69.1809234619141 x_10_11 + 16.6433162689209 x_10_12
      + 42.4499702453613 x_10_13 + 87.0976486206055 x_10_14
      + 28.3019428253174 x_11_1 + 30.8058433532715 x_11_2
      + 49.2442893981934 x_11_3 + 53.3104133605957 x_11_4
      + 76.9220352172852 x_11_5 + 14.8660688400269 x_11_6
      + 90.9175415039062 x_11_7 + 82.0975036621094 x_11_8
      + 71.1758422851562 x_11_9 + 69.1809234619141 x_11_10
      + 56.7538528442383 x_11_12 + 74.0270233154297 x_11_13
      + 21.2602920532227 x_11_14 + 79.6492309570312 x_12_1
      + 38.6005172729492 x_12_2 + 39.8497161865234 x_12_3
      + 9.21954441070557 x_12_4 + 20.2484569549561 x_12_5
      + 65.0691909790039 x_12_6 + 39.20458984375 x_12_7
      + 34.5398330688477 x_12_8 + 44.1474800109863 x_12_9
      + 16.6433162689209 x_12_10 + 56.7538528442383 x_12_11
      + 32.1403160095215 x_12_13 + 76.3216857910156 x_12_14
      + 101.138519287109 x_13_1 + 45.1774291992188 x_13_2
      + 71.5891036987305 x_13_3 + 26.5706596374512 x_13_4
      + 29.6816444396973 x_13_5 + 76.4787521362305 x_13_6
      + 21.023796081543 x_13_7 + 10 x_13_8 + 75.3259582519531 x_13_9
      + 42.4499702453613 x_13_10 + 74.0270233154297 x_13_11
      + 32.1403160095215 x_13_12 + 95.2680435180664 x_13_14
      + 10.0498752593994 x_14_1 + 51.7397346496582 x_14_2
      + 59.8414573669434 x_14_3 + 73.8241119384766 x_14_4
      + 96.5660400390625 x_14_5 + 25.7099208831787 x_14_6
      + 111.830230712891 x_14_7 + 103.227905273438 x_14_8
      + 82.3771820068359 x_14_9 + 87.0976486206055 x_14_10
      + 21.2602920532227 x_14_11 + 76.3216857910156 x_14_12
      + 95.2680435180664 x_14_13
Subject To
 CstDepDegOut_0:     x_0_1 + x_0_2 + x_0_3 + x_0_4 + x_0_5 + x_0_6 + x_0_7
                     + x_0_8 + x_0_9 + x_0_10 + x_0_11 + x_0_12 + x_0_13
                     + x_0_14 <= 5
 CstDepDegIn_0:      x_1_0 + x_2_0 + x_3_0 + x_4_0 + x_5_0 + x_6_0 + x_7_0
                     + x_8_0 + x_9_0 + x_10_0 + x_11_0 + x_12_0 + x_13_0
                     + x_14_0 <= 5
 CstDegOut_1:        x_1_0 + x_1_2 + x_1_3 + x_1_4 + x_1_5 + x_1_6 + x_1_7
                     + x_1_8 + x_1_9 + x_1_10 + x_1_11 + x_1_12 + x_1_13
                     + x_1_14  = 1
 CstDegOut_2:        x_2_0 + x_2_1 + x_2_3 + x_2_4 + x_2_5 + x_2_6 + x_2_7
                     + x_2_8 + x_2_9 + x_2_10 + x_2_11 + x_2_12 + x_2_13
                     + x_2_14  = 1
 CstDegOut_3:        x_3_0 + x_3_1 + x_3_2 + x_3_4 + x_3_5 + x_3_6 + x_3_7
                     + x_3_8 + x_3_9 + x_3_10 + x_3_11 + x_3_12 + x_3_13
                     + x_3_14  = 1
 CstDegOut_4:        x_4_0 + x_4_1 + x_4_2 + x_4_3 + x_4_5 + x_4_6 + x_4_7
                     + x_4_8 + x_4_9 + x_4_10 + x_4_11 + x_4_12 + x_4_13
                     + x_4_14  = 1
 CstDegOut_5:        x_5_0 + x_5_1 + x_5_2 + x_5_3 + x_5_4 + x_5_6 + x_5_7
                     + x_5_8 + x_5_9 + x_5_10 + x_5_11 + x_5_12 + x_5_13
                     + x_5_14  = 1
 CstDegOut_6:        x_6_0 + x_6_1 + x_6_2 + x_6_3 + x_6_4 + x_6_5 + x_6_7
                     + x_6_8 + x_6_9 + x_6_10 + x_6_11 + x_6_12 + x_6_13
                     + x_6_14  = 1
 CstDegOut_7:        x_7_0 + x_7_1 + x_7_2 + x_7_3 + x_7_4 + x_7_5 + x_7_6
                     + x_7_8 + x_7_9 + x_7_10 + x_7_11 + x_7_12 + x_7_13
                     + x_7_14  = 1
 CstDegOut_8:        x_8_0 + x_8_1 + x_8_2 + x_8_3 + x_8_4 + x_8_5 + x_8_6
                     + x_8_7 + x_8_9 + x_8_10 + x_8_11 + x_8_12 + x_8_13
                     + x_8_14  = 1
 CstDegOut_9:        x_9_0 + x_9_1 + x_9_2 + x_9_3 + x_9_4 + x_9_5 + x_9_6
                     + x_9_7 + x_9_8 + x_9_10 + x_9_11 + x_9_12 + x_9_13
                     + x_9_14  = 1
 CstDegOut_10:       x_10_0 + x_10_1 + x_10_2 + x_10_3 + x_10_4 + x_10_5
                     + x_10_6 + x_10_7 + x_10_8 + x_10_9 + x_10_11 + x_10_12
                     + x_10_13 + x_10_14  = 1
 CstDegOut_11:       x_11_0 + x_11_1 + x_11_2 + x_11_3 + x_11_4 + x_11_5
                     + x_11_6 + x_11_7 + x_11_8 + x_11_9 + x_11_10 + x_11_12
                     + x_11_13 + x_11_14  = 1
 CstDegOut_12:       x_12_0 + x_12_1 + x_12_2 + x_12_3 + x_12_4 + x_12_5
                     + x_12_6 + x_12_7 + x_12_8 + x_12_9 + x_12_10 + x_12_11
                     + x_12_13 + x_12_14  = 1
 CstDegOut_13:       x_13_0 + x_13_1 + x_13_2 + x_13_3 + x_13_4 + x_13_5
                     + x_13_6 + x_13_7 + x_13_8 + x_13_9 + x_13_10 + x_13_11
                     + x_13_12 + x_13_14  = 1
 CstDegOut_14:       x_14_0 + x_14_1 + x_14_2 + x_14_3 + x_14_4 + x_14_5
                     + x_14_6 + x_14_7 + x_14_8 + x_14_9 + x_14_10 + x_14_11
                     + x_14_12 + x_14_13  = 1
 CstDegInt_1:        x_0_1 + x_2_1 + x_3_1 + x_4_1 + x_5_1 + x_6_1 + x_7_1
                     + x_8_1 + x_9_1 + x_10_1 + x_11_1 + x_12_1 + x_13_1
                     + x_14_1  = 1
 CstDegInt_2:        x_0_2 + x_1_2 + x_3_2 + x_4_2 + x_5_2 + x_6_2 + x_7_2
                     + x_8_2 + x_9_2 + x_10_2 + x_11_2 + x_12_2 + x_13_2
                     + x_14_2  = 1
 CstDegInt_3:        x_0_3 + x_1_3 + x_2_3 + x_4_3 + x_5_3 + x_6_3 + x_7_3
                     + x_8_3 + x_9_3 + x_10_3 + x_11_3 + x_12_3 + x_13_3
                     + x_14_3  = 1
 CstDegInt_4:        x_0_4 + x_1_4 + x_2_4 + x_3_4 + x_5_4 + x_6_4 + x_7_4
                     + x_8_4 + x_9_4 + x_10_4 + x_11_4 + x_12_4 + x_13_4
                     + x_14_4  = 1
 CstDegInt_5:        x_0_5 + x_1_5 + x_2_5 + x_3_5 + x_4_5 + x_6_5 + x_7_5
                     + x_8_5 + x_9_5 + x_10_5 + x_11_5 + x_12_5 + x_13_5
                     + x_14_5  = 1
 CstDegInt_6:        x_0_6 + x_1_6 + x_2_6 + x_3_6 + x_4_6 + x_5_6 + x_7_6
                     + x_8_6 + x_9_6 + x_10_6 + x_11_6 + x_12_6 + x_13_6
                     + x_14_6  = 1
 CstDegInt_7:        x_0_7 + x_1_7 + x_2_7 + x_3_7 + x_4_7 + x_5_7 + x_6_7
                     + x_8_7 + x_9_7 + x_10_7 + x_11_7 + x_12_7 + x_13_7
                     + x_14_7  = 1
 CstDegInt_8:        x_0_8 + x_1_8 + x_2_8 + x_3_8 + x_4_8 + x_5_8 + x_6_8
                     + x_7_8 + x_9_8 + x_10_8 + x_11_8 + x_12_8 + x_13_8
                     + x_14_8  = 1
 CstDegInt_9:        x_0_9 + x_1_9 + x_2_9 + x_3_9 + x_4_9 + x_5_9 + x_6_9
                     + x_7_9 + x_8_9 + x_10_9 + x_11_9 + x_12_9 + x_13_9
                     + x_14_9  = 1
 CstDegInt_10:       x_0_10 + x_1_10 + x_2_10 + x_3_10 + x_4_10 + x_5_10
                     + x_6_10 + x_7_10 + x_8_10 + x_9_10 + x_11_10 + x_12_10
                     + x_13_10 + x_14_10  = 1
 CstDegInt_11:       x_0_11 + x_1_11 + x_2_11 + x_3_11 + x_4_11 + x_5_11
                     + x_6_11 + x_7_11 + x_8_11 + x_9_11 + x_10_11 + x_12_11
                     + x_13_11 + x_14_11  = 1
 CstDegInt_12:       x_0_12 + x_1_12 + x_2_12 + x_3_12 + x_4_12 + x_5_12
                     + x_6_12 + x_7_12 + x_8_12 + x_9_12 + x_10_12 + x_11_12
                     + x_13_12 + x_14_12  = 1
 CstDegInt_13:       x_0_13 + x_1_13 + x_2_13 + x_3_13 + x_4_13 + x_5_13
                     + x_6_13 + x_7_13 + x_8_13 + x_9_13 + x_10_13 + x_11_13
                     + x_12_13 + x_14_13  = 1
 CstDegInt_14:       x_0_14 + x_1_14 + x_2_14 + x_3_14 + x_4_14 + x_5_14
                     + x_6_14 + x_7_14 + x_8_14 + x_9_14 + x_10_14 + x_11_14
                     + x_12_14 + x_13_14  = 1
 CstMTZ_0_1:         - 105 x_0_1 + u_1 - u_0 >= -100
 CstMTZ_0_2:         - 123 x_0_2 - u_0 + u_2 >= -100
 CstMTZ_0_3:         - 114 x_0_3 - u_0 + u_3 >= -100
 CstMTZ_0_4:         - 113 x_0_4 - u_0 + u_4 >= -100
 CstMTZ_0_5:         - 108 x_0_5 - u_0 + u_5 >= -100
 CstMTZ_0_6:         - 118 x_0_6 - u_0 + u_6 >= -100
 CstMTZ_0_7:         - 119 x_0_7 - u_0 + u_7 >= -100
 CstMTZ_0_8:         - 110 x_0_8 - u_0 + u_8 >= -100
 CstMTZ_0_9:         - 118 x_0_9 - u_0 + u_9 >= -100
 CstMTZ_0_10:        - 120 x_0_10 - u_0 + u_10 >= -100
 CstMTZ_0_11:        - 105 x_0_11 - u_0 + u_11 >= -100
 CstMTZ_0_12:        - 109 x_0_12 - u_0 + u_12 >= -100
 CstMTZ_0_13:        - 123 x_0_13 - u_0 + u_13 >= -100
 CstMTZ_0_14:        - 109 x_0_14 - u_0 + u_14 >= -100
 CstMTZ_1_2:         - 123 x_1_2 - u_1 + u_2 >= -100
 CstMTZ_1_3:         - 114 x_1_3 - u_1 + u_3 >= -100
 CstMTZ_1_4:         - 113 x_1_4 - u_1 + u_4 >= -100
 CstMTZ_1_5:         - 108 x_1_5 - u_1 + u_5 >= -100
 CstMTZ_1_6:         - 118 x_1_6 - u_1 + u_6 >= -100
 CstMTZ_1_7:         - 119 x_1_7 - u_1 + u_7 >= -100
 CstMTZ_1_8:         - 110 x_1_8 - u_1 + u_8 >= -100
 CstMTZ_1_9:         - 118 x_1_9 - u_1 + u_9 >= -100
 CstMTZ_1_10:        - 120 x_1_10 - u_1 + u_10 >= -100
 CstMTZ_1_11:        - 105 x_1_11 - u_1 + u_11 >= -100
 CstMTZ_1_12:        - 109 x_1_12 - u_1 + u_12 >= -100
 CstMTZ_1_13:        - 123 x_1_13 - u_1 + u_13 >= -100
 CstMTZ_1_14:        - 109 x_1_14 - u_1 + u_14 >= -100
 CstMTZ_2_1:         - 105 x_2_1 + u_1 - u_2 >= -100
 CstMTZ_2_3:         - 114 x_2_3 - u_2 + u_3 >= -100
 CstMTZ_2_4:         - 113 x_2_4 - u_2 + u_4 >= -100
 CstMTZ_2_5:         - 108 x_2_5 - u_2 + u_5 >= -100
 CstMTZ_2_6:         - 118 x_2_6 - u_2 + u_6 >= -100
 CstMTZ_2_7:         - 119 x_2_7 - u_2 + u_7 >= -100
 CstMTZ_2_8:         - 110 x_2_8 - u_2 + u_8 >= -100
 CstMTZ_2_9:         - 118 x_2_9 - u_2 + u_9 >= -100
 CstMTZ_2_10:        - 120 x_2_10 - u_2 + u_10 >= -100
 CstMTZ_2_11:        - 105 x_2_11 - u_2 + u_11 >= -100
 CstMTZ_2_12:        - 109 x_2_12 - u_2 + u_12 >= -100
 CstMTZ_2_13:        - 123 x_2_13 - u_2 + u_13 >= -100
 CstMTZ_2_14:        - 109 x_2_14 - u_2 + u_14 >= -100
 CstMTZ_3_1:         - 105 x_3_1 + u_1 - u_3 >= -100
 CstMTZ_3_2:         - 123 x_3_2 + u_2 - u_3 >= -100
 CstMTZ_3_4:         - 113 x_3_4 - u_3 + u_4 >= -100
 CstMTZ_3_5:         - 108 x_3_5 - u_3 + u_5 >= -100
 CstMTZ_3_6:         - 118 x_3_6 - u_3 + u_6 >= -100
 CstMTZ_3_7:         - 119 x_3_7 - u_3 + u_7 >= -100
 CstMTZ_3_8:         - 110 x_3_8 - u_3 + u_8 >= -100
 CstMTZ_3_9:         - 118 x_3_9 - u_3 + u_9 >= -100
 CstMTZ_3_10:        - 120 x_3_10 - u_3 + u_10 >= -100
 CstMTZ_3_11:        - 105 x_3_11 - u_3 + u_11 >= -100
 CstMTZ_3_12:        - 109 x_3_12 - u_3 + u_12 >= -100
 CstMTZ_3_13:        - 123 x_3_13 - u_3 + u_13 >= -100
 CstMTZ_3_14:        - 109 x_3_14 - u_3 + u_14 >= -100
 CstMTZ_4_1:         - 105 x_4_1 + u_1 - u_4 >= -100
 CstMTZ_4_2:         - 123 x_4_2 + u_2 - u_4 >= -100
 CstMTZ_4_3:         - 114 x_4_3 + u_3 - u_4 >= -100
 CstMTZ_4_5:         - 108 x_4_5 - u_4 + u_5 >= -100
 CstMTZ_4_6:         - 118 x_4_6 - u_4 + u_6 >= -100
 CstMTZ_4_7:         - 119 x_4_7 - u_4 + u_7 >= -100
 CstMTZ_4_8:         - 110 x_4_8 - u_4 + u_8 >= -100
 CstMTZ_4_9:         - 118 x_4_9 - u_4 + u_9 >= -100
 CstMTZ_4_10:        - 120 x_4_10 - u_4 + u_10 >= -100
 CstMTZ_4_11:        - 105 x_4_11 - u_4 + u_11 >= -100
 CstMTZ_4_12:        - 109 x_4_12 - u_4 + u_12 >= -100
 CstMTZ_4_13:        - 123 x_4_13 - u_4 + u_13 >= -100
 CstMTZ_4_14:        - 109 x_4_14 - u_4 + u_14 >= -100
 CstMTZ_5_1:         - 105 x_5_1 + u_1 - u_5 >= -100
 CstMTZ_5_2:         - 123 x_5_2 + u_2 - u_5 >= -100
 CstMTZ_5_3:         - 114 x_5_3 + u_3 - u_5 >= -100
 CstMTZ_5_4:         - 113 x_5_4 + u_4 - u_5 >= -100
 CstMTZ_5_6:         - 118 x_5_6 - u_5 + u_6 >= -100
 CstMTZ_5_7:         - 119 x_5_7 - u_5 + u_7 >= -100
 CstMTZ_5_8:         - 110 x_5_8 - u_5 + u_8 >= -100
 CstMTZ_5_9:         - 118 x_5_9 - u_5 + u_9 >= -100
 CstMTZ_5_10:        - 120 x_5_10 - u_5 + u_10 >= -100
 CstMTZ_5_11:        - 105 x_5_11 - u_5 + u_11 >= -100
 CstMTZ_5_12:        - 109 x_5_12 - u_5 + u_12 >= -100
 CstMTZ_5_13:        - 123 x_5_13 - u_5 + u_13 >= -100
 CstMTZ_5_14:        - 109 x_5_14 - u_5 + u_14 >= -100
 CstMTZ_6_1:         - 105 x_6_1 + u_1 - u_6 >= -100
 CstMTZ_6_2:         - 123 x_6_2 + u_2 - u_6 >= -100
 CstMTZ_6_3:         - 114 x_6_3 + u_3 - u_6 >= -100
 CstMTZ_6_4:         - 113 x_6_4 + u_4 - u_6 >= -100
 CstMTZ_6_5:         - 108 x_6_5 + u_5 - u_6 >= -100
 CstMTZ_6_7:         - 119 x_6_7 - u_6 + u_7 >= -100
 CstMTZ_6_8:         - 110 x_6_8 - u_6 + u_8 >= -100
 CstMTZ_6_9:         - 118 x_6_9 - u_6 + u_9 >= -100
 CstMTZ_6_10:        - 120 x_6_10 - u_6 + u_10 >= -100
 CstMTZ_6_11:        - 105 x_6_11 - u_6 + u_11 >= -100
 CstMTZ_6_12:        - 109 x_6_12 - u_6 + u_12 >= -100
 CstMTZ_6_13:        - 123 x_6_13 - u_6 + u_13 >= -100
 CstMTZ_6_14:        - 109 x_6_14 - u_6 + u_14 >= -100
 CstMTZ_7_1:         - 105 x_7_1 + u_1 - u_7 >= -100
 CstMTZ_7_2:         - 123 x_7_2 + u_2 - u_7 >= -100
 CstMTZ_7_3:         - 114 x_7_3 + u_3 - u_7 >= -100
 CstMTZ_7_4:         - 113 x_7_4 + u_4 - u_7 >= -100
 CstMTZ_7_5:         - 108 x_7_5 + u_5 - u_7 >= -100
 CstMTZ_7_6:         - 118 x_7_6 + u_6 - u_7 >= -100
 CstMTZ_7_8:         - 110 x_7_8 - u_7 + u_8 >= -100
 CstMTZ_7_9:         - 118 x_7_9 - u_7 + u_9 >= -100
 CstMTZ_7_10:        - 120 x_7_10 - u_7 + u_10 >= -100
 CstMTZ_7_11:        - 105 x_7_11 - u_7 + u_11 >= -100
 CstMTZ_7_12:        - 109 x_7_12 - u_7 + u_12 >= -100
 CstMTZ_7_13:        - 123 x_7_13 - u_7 + u_13 >= -100
 CstMTZ_7_14:        - 109 x_7_14 - u_7 + u_14 >= -100
 CstMTZ_8_1:         - 105 x_8_1 + u_1 - u_8 >= -100
 CstMTZ_8_2:         - 123 x_8_2 + u_2 - u_8 >= -100
 CstMTZ_8_3:         - 114 x_8_3 + u_3 - u_8 >= -100
 CstMTZ_8_4:         - 113 x_8_4 + u_4 - u_8 >= -100
 CstMTZ_8_5:         - 108 x_8_5 + u_5 - u_8 >= -100
 CstMTZ_8_6:         - 118 x_8_6 + u_6 - u_8 >= -100
 CstMTZ_8_7:         - 119 x_8_7 + u_7 - u_8 >= -100
 CstMTZ_8_9:         - 118 x_8_9 - u_8 + u_9 >= -100
 CstMTZ_8_10:        - 120 x_8_10 - u_8 + u_10 >= -100
 CstMTZ_8_11:        - 105 x_8_11 - u_8 + u_11 >= -100
 CstMTZ_8_12:        - 109 x_8_12 - u_8 + u_12 >= -100
 CstMTZ_8_13:        - 123 x_8_13 - u_8 + u_13 >= -100
 CstMTZ_8_14:        - 109 x_8_14 - u_8 + u_14 >= -100
 CstMTZ_9_1:         - 105 x_9_1 + u_1 - u_9 >= -100
 CstMTZ_9_2:         - 123 x_9_2 + u_2 - u_9 >= -100
 CstMTZ_9_3:         - 114 x_9_3 + u_3 - u_9 >= -100
 CstMTZ_9_4:         - 113 x_9_4 + u_4 - u_9 >= -100
 CstMTZ_9_5:         - 108 x_9_5 + u_5 - u_9 >= -100
 CstMTZ_9_6:         - 118 x_9_6 + u_6 - u_9 >= -100
 CstMTZ_9_7:         - 119 x_9_7 + u_7 - u_9 >= -100
 CstMTZ_9_8:         - 110 x_9_8 + u_8 - u_9 >= -100
 CstMTZ_9_10:        - 120 x_9_10 - u_9 + u_10 >= -100
 CstMTZ_9_11:        - 105 x_9_11 - u_9 + u_11 >= -100
 CstMTZ_9_12:        - 109 x_9_12 - u_9 + u_12 >= -100
 CstMTZ_9_13:        - 123 x_9_13 - u_9 + u_13 >= -100
 CstMTZ_9_14:        - 109 x_9_14 - u_9 + u_14 >= -100
 CstMTZ_10_1:        - 105 x_10_1 + u_1 - u_10 >= -100
 CstMTZ_10_2:        - 123 x_10_2 + u_2 - u_10 >= -100
 CstMTZ_10_3:        - 114 x_10_3 + u_3 - u_10 >= -100
 CstMTZ_10_4:        - 113 x_10_4 + u_4 - u_10 >= -100
 CstMTZ_10_5:        - 108 x_10_5 + u_5 - u_10 >= -100
 CstMTZ_10_6:        - 118 x_10_6 + u_6 - u_10 >= -100
 CstMTZ_10_7:        - 119 x_10_7 + u_7 - u_10 >= -100
 CstMTZ_10_8:        - 110 x_10_8 + u_8 - u_10 >= -100
 CstMTZ_10_9:        - 118 x_10_9 + u_9 - u_10 >= -100
 CstMTZ_10_11:       - 105 x_10_11 - u_10 + u_11 >= -100
 CstMTZ_10_12:       - 109 x_10_12 - u_10 + u_12 >= -100
 CstMTZ_10_13:       - 123 x_10_13 - u_10 + u_13 >= -100
 CstMTZ_10_14:       - 109 x_10_14 - u_10 + u_14 >= -100
 CstMTZ_11_1:        - 105 x_11_1 + u_1 - u_11 >= -100
 CstMTZ_11_2:        - 123 x_11_2 + u_2 - u_11 >= -100
 CstMTZ_11_3:        - 114 x_11_3 + u_3 - u_11 >= -100
 CstMTZ_11_4:        - 113 x_11_4 + u_4 - u_11 >= -100
 CstMTZ_11_5:        - 108 x_11_5 + u_5 - u_11 >= -100
 CstMTZ_11_6:        - 118 x_11_6 + u_6 - u_11 >= -100
 CstMTZ_11_7:        - 119 x_11_7 + u_7 - u_11 >= -100
 CstMTZ_11_8:        - 110 x_11_8 + u_8 - u_11 >= -100
 CstMTZ_11_9:        - 118 x_11_9 + u_9 - u_11 >= -100
 CstMTZ_11_10:       - 120 x_11_10 + u_10 - u_11 >= -100
 CstMTZ_11_12:       - 109 x_11_12 - u_11 + u_12 >= -100
 CstMTZ_11_13:       - 123 x_11_13 - u_11 + u_13 >= -100
 CstMTZ_11_14:       - 109 x_11_14 - u_11 + u_14 >= -100
 CstMTZ_12_1:        - 105 x_12_1 + u_1 - u_12 >= -100
 CstMTZ_12_2:        - 123 x_12_2 + u_2 - u_12 >= -100
 CstMTZ_12_3:        - 114 x_12_3 + u_3 - u_12 >= -100
 CstMTZ_12_4:        - 113 x_12_4 + u_4 - u_12 >= -100
 CstMTZ_12_5:        - 108 x_12_5 + u_5 - u_12 >= -100
 CstMTZ_12_6:        - 118 x_12_6 + u_6 - u_12 >= -100
 CstMTZ_12_7:        - 119 x_12_7 + u_7 - u_12 >= -100
 CstMTZ_12_8:        - 110 x_12_8 + u_8 - u_12 >= -100
 CstMTZ_12_9:        - 118 x_12_9 + u_9 - u_12 >= -100
 CstMTZ_12_10:       - 120 x_12_10 + u_10 - u_12 >= -100
 CstMTZ_12_11:       - 105 x_12_11 + u_11 - u_12 >= -100
 CstMTZ_12_13:       - 123 x_12_13 - u_12 + u_13 >= -100
 CstMTZ_12_14:       - 109 x_12_14 - u_12 + u_14 >= -100
 CstMTZ_13_1:        - 105 x_13_1 + u_1 - u_13 >= -100
 CstMTZ_13_2:        - 123 x_13_2 + u_2 - u_13 >= -100
 CstMTZ_13_3:        - 114 x_13_3 + u_3 - u_13 >= -100
 CstMTZ_13_4:        - 113 x_13_4 + u_4 - u_13 >= -100
 CstMTZ_13_5:        - 108 x_13_5 + u_5 - u_13 >= -100
 CstMTZ_13_6:        - 118 x_13_6 + u_6 - u_13 >= -100
 CstMTZ_13_7:        - 119 x_13_7 + u_7 - u_13 >= -100
 CstMTZ_13_8:        - 110 x_13_8 + u_8 - u_13 >= -100
 CstMTZ_13_9:        - 118 x_13_9 + u_9 - u_13 >= -100
 CstMTZ_13_10:       - 120 x_13_10 + u_10 - u_13 >= -100
 CstMTZ_13_11:       - 105 x_13_11 + u_11 - u_13 >= -100
 CstMTZ_13_12:       - 109 x_13_12 + u_12 - u_13 >= -100
 CstMTZ_13_14:       - 109 x_13_14 - u_13 + u_14 >= -100
 CstMTZ_14_1:        - 105 x_14_1 + u_1 - u_14 >= -100
 CstMTZ_14_2:        - 123 x_14_2 + u_2 - u_14 >= -100
 CstMTZ_14_3:        - 114 x_14_3 + u_3 - u_14 >= -100
 CstMTZ_14_4:        - 113 x_14_4 + u_4 - u_14 >= -100
 CstMTZ_14_5:        - 108 x_14_5 + u_5 - u_14 >= -100
 CstMTZ_14_6:        - 118 x_14_6 + u_6 - u_14 >= -100
 CstMTZ_14_7:        - 119 x_14_7 + u_7 - u_14 >= -100
 CstMTZ_14_8:        - 110 x_14_8 + u_8 - u_14 >= -100
 CstMTZ_14_9:        - 118 x_14_9 + u_9 - u_14 >= -100
 CstMTZ_14_10:       - 120 x_14_10 + u_10 - u_14 >= -100
 CstMTZ_14_11:       - 105 x_14_11 + u_11 - u_14 >= -100
 CstMTZ_14_12:       - 109 x_14_12 + u_12 - u_14 >= -100
 CstMTZ_14_13:       - 123 x_14_13 + u_13 - u_14 >= -100
 CstOpposites_1_2:   x_1_2 + x_2_1 <= 1
 CstOpposites_1_3:   x_1_3 + x_3_1 <= 1
 CstOpposites_1_4:   x_1_4 + x_4_1 <= 1
 CstOpposites_1_5:   x_1_5 + x_5_1 <= 1
 CstOpposites_1_6:   x_1_6 + x_6_1 <= 1
 CstOpposites_1_7:   x_1_7 + x_7_1 <= 1
 CstOpposites_1_8:   x_1_8 + x_8_1 <= 1
 CstOpposites_1_9:   x_1_9 + x_9_1 <= 1
 CstOpposites_1_10:  x_1_10 + x_10_1 <= 1
 CstOpposites_1_11:  x_1_11 + x_11_1 <= 1
 CstOpposites_1_12:  x_1_12 + x_12_1 <= 1
 CstOpposites_1_13:  x_1_13 + x_13_1 <= 1
 CstOpposites_1_14:  x_1_14 + x_14_1 <= 1
 CstOpposites_2_1:   x_1_2 + x_2_1 <= 1
 CstOpposites_2_3:   x_2_3 + x_3_2 <= 1
 CstOpposites_2_4:   x_2_4 + x_4_2 <= 1
 CstOpposites_2_5:   x_2_5 + x_5_2 <= 1
 CstOpposites_2_6:   x_2_6 + x_6_2 <= 1
 CstOpposites_2_7:   x_2_7 + x_7_2 <= 1
 CstOpposites_2_8:   x_2_8 + x_8_2 <= 1
 CstOpposites_2_9:   x_2_9 + x_9_2 <= 1
 CstOpposites_2_10:  x_2_10 + x_10_2 <= 1
 CstOpposites_2_11:  x_2_11 + x_11_2 <= 1
 CstOpposites_2_12:  x_2_12 + x_12_2 <= 1
 CstOpposites_2_13:  x_2_13 + x_13_2 <= 1
 CstOpposites_2_14:  x_2_14 + x_14_2 <= 1
 CstOpposites_3_1:   x_1_3 + x_3_1 <= 1
 CstOpposites_3_2:   x_2_3 + x_3_2 <= 1
 CstOpposites_3_4:   x_3_4 + x_4_3 <= 1
 CstOpposites_3_5:   x_3_5 + x_5_3 <= 1
 CstOpposites_3_6:   x_3_6 + x_6_3 <= 1
 CstOpposites_3_7:   x_3_7 + x_7_3 <= 1
 CstOpposites_3_8:   x_3_8 + x_8_3 <= 1
 CstOpposites_3_9:   x_3_9 + x_9_3 <= 1
 CstOpposites_3_10:  x_3_10 + x_10_3 <= 1
 CstOpposites_3_11:  x_3_11 + x_11_3 <= 1
 CstOpposites_3_12:  x_3_12 + x_12_3 <= 1
 CstOpposites_3_13:  x_3_13 + x_13_3 <= 1
 CstOpposites_3_14:  x_3_14 + x_14_3 <= 1
 CstOpposites_4_1:   x_1_4 + x_4_1 <= 1
 CstOpposites_4_2:   x_2_4 + x_4_2 <= 1
 CstOpposites_4_3:   x_3_4 + x_4_3 <= 1
 CstOpposites_4_5:   x_4_5 + x_5_4 <= 1
 CstOpposites_4_6:   x_4_6 + x_6_4 <= 1
 CstOpposites_4_7:   x_4_7 + x_7_4 <= 1
 CstOpposites_4_8:   x_4_8 + x_8_4 <= 1
 CstOpposites_4_9:   x_4_9 + x_9_4 <= 1
 CstOpposites_4_10:  x_4_10 + x_10_4 <= 1
 CstOpposites_4_11:  x_4_11 + x_11_4 <= 1
 CstOpposites_4_12:  x_4_12 + x_12_4 <= 1
 CstOpposites_4_13:  x_4_13 + x_13_4 <= 1
 CstOpposites_4_14:  x_4_14 + x_14_4 <= 1
 CstOpposites_5_1:   x_1_5 + x_5_1 <= 1
 CstOpposites_5_2:   x_2_5 + x_5_2 <= 1
 CstOpposites_5_3:   x_3_5 + x_5_3 <= 1
 CstOpposites_5_4:   x_4_5 + x_5_4 <= 1
 CstOpposites_5_6:   x_5_6 + x_6_5 <= 1
 CstOpposites_5_7:   x_5_7 + x_7_5 <= 1
 CstOpposites_5_8:   x_5_8 + x_8_5 <= 1
 CstOpposites_5_9:   x_5_9 + x_9_5 <= 1
 CstOpposites_5_10:  x_5_10 + x_10_5 <= 1
 CstOpposites_5_11:  x_5_11 + x_11_5 <= 1
 CstOpposites_5_12:  x_5_12 + x_12_5 <= 1
 CstOpposites_5_13:  x_5_13 + x_13_5 <= 1
 CstOpposites_5_14:  x_5_14 + x_14_5 <= 1
 CstOpposites_6_1:   x_1_6 + x_6_1 <= 1
 CstOpposites_6_2:   x_2_6 + x_6_2 <= 1
 CstOpposites_6_3:   x_3_6 + x_6_3 <= 1
 CstOpposites_6_4:   x_4_6 + x_6_4 <= 1
 CstOpposites_6_5:   x_5_6 + x_6_5 <= 1
 CstOpposites_6_7:   x_6_7 + x_7_6 <= 1
 CstOpposites_6_8:   x_6_8 + x_8_6 <= 1
 CstOpposites_6_9:   x_6_9 + x_9_6 <= 1
 CstOpposites_6_10:  x_6_10 + x_10_6 <= 1
 CstOpposites_6_11:  x_6_11 + x_11_6 <= 1
 CstOpposites_6_12:  x_6_12 + x_12_6 <= 1
 CstOpposites_6_13:  x_6_13 + x_13_6 <= 1
 CstOpposites_6_14:  x_6_14 + x_14_6 <= 1
 CstOpposites_7_1:   x_1_7 + x_7_1 <= 1
 CstOpposites_7_2:   x_2_7 + x_7_2 <= 1
 CstOpposites_7_3:   x_3_7 + x_7_3 <= 1
 CstOpposites_7_4:   x_4_7 + x_7_4 <= 1
 CstOpposites_7_5:   x_5_7 + x_7_5 <= 1
 CstOpposites_7_6:   x_6_7 + x_7_6 <= 1
 CstOpposites_7_8:   x_7_8 + x_8_7 <= 1
 CstOpposites_7_9:   x_7_9 + x_9_7 <= 1
 CstOpposites_7_10:  x_7_10 + x_10_7 <= 1
 CstOpposites_7_11:  x_7_11 + x_11_7 <= 1
 CstOpposites_7_12:  x_7_12 + x_12_7 <= 1
 CstOpposites_7_13:  x_7_13 + x_13_7 <= 1
 CstOpposites_7_14:  x_7_14 + x_14_7 <= 1
 CstOpposites_8_1:   x_1_8 + x_8_1 <= 1
 CstOpposites_8_2:   x_2_8 + x_8_2 <= 1
 CstOpposites_8_3:   x_3_8 + x_8_3 <= 1
 CstOpposites_8_4:   x_4_8 + x_8_4 <= 1
 CstOpposites_8_5:   x_5_8 + x_8_5 <= 1
 CstOpposites_8_6:   x_6_8 + x_8_6 <= 1
 CstOpposites_8_7:   x_7_8 + x_8_7 <= 1
 CstOpposites_8_9:   x_8_9 + x_9_8 <= 1
 CstOpposites_8_10:  x_8_10 + x_10_8 <= 1
 CstOpposites_8_11:  x_8_11 + x_11_8 <= 1
 CstOpposites_8_12:  x_8_12 + x_12_8 <= 1
 CstOpposites_8_13:  x_8_13 + x_13_8 <= 1
 CstOpposites_8_14:  x_8_14 + x_14_8 <= 1
 CstOpposites_9_1:   x_1_9 + x_9_1 <= 1
 CstOpposites_9_2:   x_2_9 + x_9_2 <= 1
 CstOpposites_9_3:   x_3_9 + x_9_3 <= 1
 CstOpposites_9_4:   x_4_9 + x_9_4 <= 1
 CstOpposites_9_5:   x_5_9 + x_9_5 <= 1
 CstOpposites_9_6:   x_6_9 + x_9_6 <= 1
 CstOpposites_9_7:   x_7_9 + x_9_7 <= 1
 CstOpposites_9_8:   x_8_9 + x_9_8 <= 1
 CstOpposites_9_10:  x_9_10 + x_10_9 <= 1
 CstOpposites_9_11:  x_9_11 + x_11_9 <= 1
 CstOpposites_9_12:  x_9_12 + x_12_9 <= 1
 CstOpposites_9_13:  x_9_13 + x_13_9 <= 1
 CstOpposites_9_14:  x_9_14 + x_14_9 <= 1
 CstOpposites_10_1:  x_1_10 + x_10_1 <= 1
 CstOpposites_10_2:  x_2_10 + x_10_2 <= 1
 CstOpposites_10_3:  x_3_10 + x_10_3 <= 1
 CstOpposites_10_4:  x_4_10 + x_10_4 <= 1
 CstOpposites_10_5:  x_5_10 + x_10_5 <= 1
 CstOpposites_10_6:  x_6_10 + x_10_6 <= 1
 CstOpposites_10_7:  x_7_10 + x_10_7 <= 1
 CstOpposites_10_8:  x_8_10 + x_10_8 <= 1
 CstOpposites_10_9:  x_9_10 + x_10_9 <= 1
 CstOpposites_10_11: x_10_11 + x_11_10 <= 1
 CstOpposites_10_12: x_10_12 + x_12_10 <= 1
 CstOpposites_10_13: x_10_13 + x_13_10 <= 1
 CstOpposites_10_14: x_10_14 + x_14_10 <= 1
 CstOpposites_11_1:  x_1_11 + x_11_1 <= 1
 CstOpposites_11_2:  x_2_11 + x_11_2 <= 1
 CstOpposites_11_3:  x_3_11 + x_11_3 <= 1
 CstOpposites_11_4:  x_4_11 + x_11_4 <= 1
 CstOpposites_11_5:  x_5_11 + x_11_5 <= 1
 CstOpposites_11_6:  x_6_11 + x_11_6 <= 1
 CstOpposites_11_7:  x_7_11 + x_11_7 <= 1
 CstOpposites_11_8:  x_8_11 + x_11_8 <= 1
 CstOpposites_11_9:  x_9_11 + x_11_9 <= 1
 CstOpposites_11_10: x_10_11 + x_11_10 <= 1
 CstOpposites_11_12: x_11_12 + x_12_11 <= 1
 CstOpposites_11_13: x_11_13 + x_13_11 <= 1
 CstOpposites_11_14: x_11_14 + x_14_11 <= 1
 CstOpposites_12_1:  x_1_12 + x_12_1 <= 1
 CstOpposites_12_2:  x_2_12 + x_12_2 <= 1
 CstOpposites_12_3:  x_3_12 + x_12_3 <= 1
 CstOpposites_12_4:  x_4_12 + x_12_4 <= 1
 CstOpposites_12_5:  x_5_12 + x_12_5 <= 1
 CstOpposites_12_6:  x_6_12 + x_12_6 <= 1
 CstOpposites_12_7:  x_7_12 + x_12_7 <= 1
 CstOpposites_12_8:  x_8_12 + x_12_8 <= 1
 CstOpposites_12_9:  x_9_12 + x_12_9 <= 1
 CstOpposites_12_10: x_10_12 + x_12_10 <= 1
 CstOpposites_12_11: x_11_12 + x_12_11 <= 1
 CstOpposites_12_13: x_12_13 + x_13_12 <= 1
 CstOpposites_12_14: x_12_14 + x_14_12 <= 1
 CstOpposites_13_1:  x_1_13 + x_13_1 <= 1
 CstOpposites_13_2:  x_2_13 + x_13_2 <= 1
 CstOpposites_13_3:  x_3_13 + x_13_3 <= 1
 CstOpposites_13_4:  x_4_13 + x_13_4 <= 1
 CstOpposites_13_5:  x_5_13 + x_13_5 <= 1
 CstOpposites_13_6:  x_6_13 + x_13_6 <= 1
 CstOpposites_13_7:  x_7_13 + x_13_7 <= 1
 CstOpposites_13_8:  x_8_13 + x_13_8 <= 1
 CstOpposites_13_9:  x_9_13 + x_13_9 <= 1
 CstOpposites_13_10: x_10_13 + x_13_10 <= 1
 CstOpposites_13_11: x_11_13 + x_13_11 <= 1
 CstOpposites_13_12: x_12_13 + x_13_12 <= 1
 CstOpposites_13_14: x_13_14 + x_14_13 <= 1
 CstOpposites_14_1:  x_1_14 + x_14_1 <= 1
 CstOpposites_14_2:  x_2_14 + x_14_2 <= 1
 CstOpposites_14_3:  x_3_14 + x_14_3 <= 1
 CstOpposites_14_4:  x_4_14 + x_14_4 <= 1
 CstOpposites_14_5:  x_5_14 + x_14_5 <= 1
 CstOpposites_14_6:  x_6_14 + x_14_6 <= 1
 CstOpposites_14_7:  x_7_14 + x_14_7 <= 1
 CstOpposites_14_8:  x_8_14 + x_14_8 <= 1
 CstOpposites_14_9:  x_9_14 + x_14_9 <= 1
 CstOpposites_14_10: x_10_14 + x_14_10 <= 1
 CstOpposites_14_11: x_11_14 + x_14_11 <= 1
 CstOpposites_14_12: x_12_14 + x_14_12 <= 1
 CstOpposites_14_13: x_13_14 + x_14_13 <= 1
Bounds
 0 <= x_0_1 <= 1
 0 <= x_0_2 <= 1
 0 <= x_0_3 <= 1
 0 <= x_0_4 <= 1
 0 <= x_0_5 <= 1
 0 <= x_0_6 <= 1
 0 <= x_0_7 <= 1
 0 <= x_0_8 <= 1
 0 <= x_0_9 <= 1
 0 <= x_0_10 <= 1
 0 <= x_0_11 <= 1
 0 <= x_0_12 <= 1
 0 <= x_0_13 <= 1
 0 <= x_0_14 <= 1
 0 <= x_1_0 <= 1
 0 <= x_2_0 <= 1
 0 <= x_3_0 <= 1
 0 <= x_4_0 <= 1
 0 <= x_5_0 <= 1
 0 <= x_6_0 <= 1
 0 <= x_7_0 <= 1
 0 <= x_8_0 <= 1
 0 <= x_9_0 <= 1
 0 <= x_10_0 <= 1
 0 <= x_11_0 <= 1
 0 <= x_12_0 <= 1
 0 <= x_13_0 <= 1
 0 <= x_14_0 <= 1
 0 <= x_1_2 <= 1
 0 <= x_1_3 <= 1
 0 <= x_1_4 <= 1
 0 <= x_1_5 <= 1
 0 <= x_1_6 <= 1
 0 <= x_1_7 <= 1
 0 <= x_1_8 <= 1
 0 <= x_1_9 <= 1
 0 <= x_1_10 <= 1
 0 <= x_1_11 <= 1
 0 <= x_1_12 <= 1
 0 <= x_1_13 <= 1
 0 <= x_1_14 <= 1
 0 <= x_2_1 <= 1
 0 <= x_2_3 <= 1
 0 <= x_2_4 <= 1
 0 <= x_2_5 <= 1
 0 <= x_2_6 <= 1
 0 <= x_2_7 <= 1
 0 <= x_2_8 <= 1
 0 <= x_2_9 <= 1
 0 <= x_2_10 <= 1
 0 <= x_2_11 <= 1
 0 <= x_2_12 <= 1
 0 <= x_2_13 <= 1
 0 <= x_2_14 <= 1
 0 <= x_3_1 <= 1
 0 <= x_3_2 <= 1
 0 <= x_3_4 <= 1
 0 <= x_3_5 <= 1
 0 <= x_3_6 <= 1
 0 <= x_3_7 <= 1
 0 <= x_3_8 <= 1
 0 <= x_3_9 <= 1
 0 <= x_3_10 <= 1
 0 <= x_3_11 <= 1
 0 <= x_3_12 <= 1
 0 <= x_3_13 <= 1
 0 <= x_3_14 <= 1
 0 <= x_4_1 <= 1
 0 <= x_4_2 <= 1
 0 <= x_4_3 <= 1
 0 <= x_4_5 <= 1
 0 <= x_4_6 <= 1
 0 <= x_4_7 <= 1
 0 <= x_4_8 <= 1
 0 <= x_4_9 <= 1
 0 <= x_4_10 <= 1
 0 <= x_4_11 <= 1
 0 <= x_4_12 <= 1
 0 <= x_4_13 <= 1
 0 <= x_4_14 <= 1
 0 <= x_5_1 <= 1
 0 <= x_5_2 <= 1
 0 <= x_5_3 <= 1
 0 <= x_5_4 <= 1
 0 <= x_5_6 <= 1
 0 <= x_5_7 <= 1
 0 <= x_5_8 <= 1
 0 <= x_5_9 <= 1
 0 <= x_5_10 <= 1
 0 <= x_5_11 <= 1
 0 <= x_5_12 <= 1
 0 <= x_5_13 <= 1
 0 <= x_5_14 <= 1
 0 <= x_6_1 <= 1
 0 <= x_6_2 <= 1
 0 <= x_6_3 <= 1
 0 <= x_6_4 <= 1
 0 <= x_6_5 <= 1
 0 <= x_6_7 <= 1
 0 <= x_6_8 <= 1
 0 <= x_6_9 <= 1
 0 <= x_6_10 <= 1
 0 <= x_6_11 <= 1
 0 <= x_6_12 <= 1
 0 <= x_6_13 <= 1
 0 <= x_6_14 <= 1
 0 <= x_7_1 <= 1
 0 <= x_7_2 <= 1
 0 <= x_7_3 <= 1
 0 <= x_7_4 <= 1
 0 <= x_7_5 <= 1
 0 <= x_7_6 <= 1
 0 <= x_7_8 <= 1
 0 <= x_7_9 <= 1
 0 <= x_7_10 <= 1
 0 <= x_7_11 <= 1
 0 <= x_7_12 <= 1
 0 <= x_7_13 <= 1
 0 <= x_7_14 <= 1
 0 <= x_8_1 <= 1
 0 <= x_8_2 <= 1
 0 <= x_8_3 <= 1
 0 <= x_8_4 <= 1
 0 <= x_8_5 <= 1
 0 <= x_8_6 <= 1
 0 <= x_8_7 <= 1
 0 <= x_8_9 <= 1
 0 <= x_8_10 <= 1
 0 <= x_8_11 <= 1
 0 <= x_8_12 <= 1
 0 <= x_8_13 <= 1
 0 <= x_8_14 <= 1
 0 <= x_9_1 <= 1
 0 <= x_9_2 <= 1
 0 <= x_9_3 <= 1
 0 <= x_9_4 <= 1
 0 <= x_9_5 <= 1
 0 <= x_9_6 <= 1
 0 <= x_9_7 <= 1
 0 <= x_9_8 <= 1
 0 <= x_9_10 <= 1
 0 <= x_9_11 <= 1
 0 <= x_9_12 <= 1
 0 <= x_9_13 <= 1
 0 <= x_9_14 <= 1
 0 <= x_10_1 <= 1
 0 <= x_10_2 <= 1
 0 <= x_10_3 <= 1
 0 <= x_10_4 <= 1
 0 <= x_10_5 <= 1
 0 <= x_10_6 <= 1
 0 <= x_10_7 <= 1
 0 <= x_10_8 <= 1
 0 <= x_10_9 <= 1
 0 <= x_10_11 <= 1
 0 <= x_10_12 <= 1
 0 <= x_10_13 <= 1
 0 <= x_10_14 <= 1
 0 <= x_11_1 <= 1
 0 <= x_11_2 <= 1
 0 <= x_11_3 <= 1
 0 <= x_11_4 <= 1
 0 <= x_11_5 <= 1
 0 <= x_11_6 <= 1
 0 <= x_11_7 <= 1
 0 <= x_11_8 <= 1
 0 <= x_11_9 <= 1
 0 <= x_11_10 <= 1
 0 <= x_11_12 <= 1
 0 <= x_11_13 <= 1
 0 <= x_11_14 <= 1
 0 <= x_12_1 <= 1
 0 <= x_12_2 <= 1
 0 <= x_12_3 <= 1
 0 <= x_12_4 <= 1
 0 <= x_12_5 <= 1
 0 <= x_12_6 <= 1
 0 <= x_12_7 <= 1
 0 <= x_12_8 <= 1
 0 <= x_12_9 <= 1
 0 <= x_12_10 <= 1
 0 <= x_12_11 <= 1
 0 <= x_12_13 <= 1
 0 <= x_12_14 <= 1
 0 <= x_13_1 <= 1
 0 <= x_13_2 <= 1
 0 <= x_13_3 <= 1
 0 <= x_13_4 <= 1
 0 <= x_13_5 <= 1
 0 <= x_13_6 <= 1
 0 <= x_13_7 <= 1
 0 <= x_13_8 <= 1
 0 <= x_13_9 <= 1
 0 <= x_13_10 <= 1
 0 <= x_13_11 <= 1
 0 <= x_13_12 <= 1
 0 <= x_13_14 <= 1
 0 <= x_14_1 <= 1
 0 <= x_14_2 <= 1
 0 <= x_14_3 <= 1
 0 <= x_14_4 <= 1
 0 <= x_14_5 <= 1
 0 <= x_14_6 <= 1
 0 <= x_14_7 <= 1
 0 <= x_14_8 <= 1
 0 <= x_14_9 <= 1
 0 <= x_14_10 <= 1
 0 <= x_14_11 <= 1
 0 <= x_14_12 <= 1
 0 <= x_14_13 <= 1
 0 <= u_1 <= 100
 0 <= u_0 <= 100
 0 <= u_2 <= 100
 0 <= u_3 <= 100
 0 <= u_4 <= 100
 0 <= u_5 <= 100
 0 <= u_6 <= 100
 0 <= u_7 <= 100
 0 <= u_8 <= 100
 0 <= u_9 <= 100
 0 <= u_10 <= 100
 0 <= u_11 <= 100
 0 <= u_12 <= 100
 0 <= u_13 <= 100
 0 <= u_14 <= 100
Binaries
 x_0_1  x_0_2  x_0_3  x_0_4  x_0_5  x_0_6  x_0_7  x_0_8  x_0_9  x_0_10  x_0_11 
 x_0_12  x_0_13  x_0_14  x_1_0  x_2_0  x_3_0  x_4_0  x_5_0  x_6_0  x_7_0 
 x_8_0  x_9_0  x_10_0  x_11_0  x_12_0  x_13_0  x_14_0  x_1_2  x_1_3  x_1_4 
 x_1_5  x_1_6  x_1_7  x_1_8  x_1_9  x_1_10  x_1_11  x_1_12  x_1_13  x_1_14 
 x_2_1  x_2_3  x_2_4  x_2_5  x_2_6  x_2_7  x_2_8  x_2_9  x_2_10  x_2_11 
 x_2_12  x_2_13  x_2_14  x_3_1  x_3_2  x_3_4  x_3_5  x_3_6  x_3_7  x_3_8 
 x_3_9  x_3_10  x_3_11  x_3_12  x_3_13  x_3_14  x_4_1  x_4_2  x_4_3  x_4_5 
 x_4_6  x_4_7  x_4_8  x_4_9  x_4_10  x_4_11  x_4_12  x_4_13  x_4_14  x_5_1 
 x_5_2  x_5_3  x_5_4  x_5_6  x_5_7  x_5_8  x_5_9  x_5_10  x_5_11  x_5_12 
 x_5_13  x_5_14  x_6_1  x_6_2  x_6_3  x_6_4  x_6_5  x_6_7  x_6_8  x_6_9 
 x_6_10  x_6_11  x_6_12  x_6_13  x_6_14  x_7_1  x_7_2  x_7_3  x_7_4  x_7_5 
 x_7_6  x_7_8  x_7_9  x_7_10  x_7_11  x_7_12  x_7_13  x_7_14  x_8_1  x_8_2 
 x_8_3  x_8_4  x_8_5  x_8_6  x_8_7  x_8_9  x_8_10  x_8_11  x_8_12  x_8_13 
 x_8_14  x_9_1  x_9_2  x_9_3  x_9_4  x_9_5  x_9_6  x_9_7  x_9_8  x_9_10 
 x_9_11  x_9_12  x_9_13  x_9_14  x_10_1  x_10_2  x_10_3  x_10_4  x_10_5 
 x_10_6  x_10_7  x_10_8  x_10_9  x_10_11  x_10_12  x_10_13  x_10_14  x_11_1 
 x_11_2  x_11_3  x_11_4  x_11_5  x_11_6  x_11_7  x_11_8  x_11_9  x_11_10 
 x_11_12  x_11_13  x_11_14  x_12_1  x_12_2  x_12_3  x_12_4  x_12_5  x_12_6 
 x_12_7  x_12_8  x_12_9  x_12_10  x_12_11  x_12_13  x_12_14  x_13_1  x_13_2 
 x_13_3  x_13_4  x_13_5  x_13_6  x_13_7  x_13_8  x_13_9  x_13_10  x_13_11 
 x_13_12  x_13_14  x_14_1  x_14_2  x_14_3  x_14_4  x_14_5  x_14_6  x_14_7 
 x_14_8  x_14_9  x_14_10  x_14_11  x_14_12  x_14_13 
End
